11
2147483647 30 5 63 37 81 10 80 15 55 43 
30 2147483647 62 8 39 91 61 5 27 8 55 
5 62 2147483647 35 16 28 5 27 3 41 73 
63 8 35 2147483647 22 23 31 66 32 27 90 
37 39 16 22 2147483647 95 51 69 6 52 55 
81 91 28 23 95 2147483647 61 8 14 85 28 
10 61 5 31 51 61 2147483647 52 89 75 49 
80 5 27 66 69 8 52 2147483647 71 58 18 
15 27 3 32 6 14 89 71 2147483647 72 22 
55 8 41 27 52 85 75 58 72 2147483647 2 
43 55 73 90 55 28 49 18 22 2 2147483647 
